experiment/data/hgs-res/Vrp-Set-Golden-n397/Vrp-Set-Golden-n397-hgs/0.hgs1.vrp
NAME : 0
COMMENT : CVRP Instance
TYPE : CVRP
DIMENSION : 397
EDGE_WEIGHT_TYPE : EUC_2D
CAPACITY : 1000
NODE_COORD_SECTION
1	0.0	0.0
2	3.0	1.0
3	3.0	3.0
4	1.0	3.0
5	-1.0	3.0
6	-3.0	3.0
7	-3.0	1.0
8	-3.0	-1.0
9	-3.0	-3.0
10	-1.0	-3.0
11	1.0	-3.0
12	3.0	-3.0
13	3.0	-1.0
14	5.0	1.0
15	5.0	3.0
16	5.0	5.0
17	3.0	5.0
18	1.0	5.0
19	-1.0	5.0
20	-3.0	5.0
21	-5.0	5.0
22	-5.0	3.0
23	-5.0	1.0
24	-5.0	-1.0
25	-5.0	-3.0
26	-5.0	-5.0
27	-3.0	-5.0
28	-1.0	-5.0
29	1.0	-5.0
30	3.0	-5.0
31	5.0	-5.0
32	5.0	-3.0
33	5.0	-1.0
34	7.0	1.0
35	7.0	3.0
36	7.0	5.0
37	7.0	7.0
38	5.0	7.0
39	3.0	7.0
40	1.0	7.0
41	-1.0	7.0
42	-3.0	7.0
43	-5.0	7.0
44	-7.0	7.0
45	-7.0	5.0
46	-7.0	3.0
47	-7.0	1.0
48	-7.0	-1.0
49	-7.0	-3.0
50	-7.0	-5.0
51	-7.0	-7.0
52	-5.0	-7.0
53	-3.0	-7.0
54	-1.0	-7.0
55	1.0	-7.0
56	3.0	-7.0
57	5.0	-7.0
58	7.0	-7.0
59	7.0	-5.0
60	7.0	-3.0
61	7.0	-1.0
62	9.0	1.0
63	9.0	3.0
64	9.0	5.0
65	9.0	7.0
66	9.0	9.0
67	7.0	9.0
68	5.0	9.0
69	3.0	9.0
70	1.0	9.0
71	-1.0	9.0
72	-3.0	9.0
73	-5.0	9.0
74	-7.0	9.0
75	-9.0	9.0
76	-9.0	7.0
77	-9.0	5.0
78	-9.0	3.0
79	-9.0	1.0
80	-9.0	-1.0
81	-9.0	-3.0
82	-9.0	-5.0
83	-9.0	-7.0
84	-9.0	-9.0
85	-7.0	-9.0
86	-5.0	-9.0
87	-3.0	-9.0
88	-1.0	-9.0
89	1.0	-9.0
90	3.0	-9.0
91	5.0	-9.0
92	7.0	-9.0
93	9.0	-9.0
94	9.0	-7.0
95	9.0	-5.0
96	9.0	-3.0
97	9.0	-1.0
98	11.0	1.0
99	11.0	3.0
100	11.0	5.0
101	11.0	7.0
102	11.0	9.0
103	11.0	11.0
104	9.0	11.0
105	7.0	11.0
106	5.0	11.0
107	3.0	11.0
108	1.0	11.0
109	-1.0	11.0
110	-3.0	11.0
111	-5.0	11.0
112	-7.0	11.0
113	-9.0	11.0
114	-11.0	11.0
115	-11.0	9.0
116	-11.0	7.0
117	-11.0	5.0
118	-11.0	3.0
119	-11.0	1.0
120	-11.0	-1.0
121	-11.0	-3.0
122	-11.0	-5.0
123	-11.0	-7.0
124	-11.0	-9.0
125	-11.0	-11.0
126	-9.0	-11.0
127	-7.0	-11.0
128	-5.0	-11.0
129	-3.0	-11.0
130	-1.0	-11.0
131	1.0	-11.0
132	3.0	-11.0
133	5.0	-11.0
134	7.0	-11.0
135	9.0	-11.0
136	11.0	-11.0
137	11.0	-9.0
138	11.0	-7.0
139	11.0	-5.0
140	11.0	-3.0
141	11.0	-1.0
142	13.0	1.0
143	13.0	3.0
144	13.0	5.0
145	13.0	7.0
146	13.0	9.0
147	13.0	11.0
148	13.0	13.0
149	11.0	13.0
150	9.0	13.0
151	7.0	13.0
152	5.0	13.0
153	3.0	13.0
154	1.0	13.0
155	-1.0	13.0
156	-3.0	13.0
157	-5.0	13.0
158	-7.0	13.0
159	-9.0	13.0
160	-11.0	13.0
161	-13.0	13.0
162	-13.0	11.0
163	-13.0	9.0
164	-13.0	7.0
165	-13.0	5.0
166	-13.0	3.0
167	-13.0	1.0
168	-13.0	-1.0
169	-13.0	-3.0
170	-13.0	-5.0
171	-13.0	-7.0
172	-13.0	-9.0
173	-13.0	-11.0
174	-13.0	-13.0
175	-11.0	-13.0
176	-9.0	-13.0
177	-7.0	-13.0
178	-5.0	-13.0
179	-3.0	-13.0
180	-1.0	-13.0
181	1.0	-13.0
182	3.0	-13.0
183	5.0	-13.0
184	7.0	-13.0
185	9.0	-13.0
186	11.0	-13.0
187	13.0	-13.0
188	13.0	-11.0
189	13.0	-9.0
190	13.0	-7.0
191	13.0	-5.0
192	13.0	-3.0
193	13.0	-1.0
194	15.0	1.0
195	15.0	3.0
196	15.0	5.0
197	15.0	7.0
198	15.0	9.0
199	15.0	11.0
200	15.0	13.0
201	15.0	15.0
202	13.0	15.0
203	11.0	15.0
204	9.0	15.0
205	7.0	15.0
206	5.0	15.0
207	3.0	15.0
208	1.0	15.0
209	-1.0	15.0
210	-3.0	15.0
211	-5.0	15.0
212	-7.0	15.0
213	-9.0	15.0
214	-11.0	15.0
215	-13.0	15.0
216	-15.0	15.0
217	-15.0	13.0
218	-15.0	11.0
219	-15.0	9.0
220	-15.0	7.0
221	-15.0	5.0
222	-15.0	3.0
223	-15.0	1.0
224	-15.0	-1.0
225	-15.0	-3.0
226	-15.0	-5.0
227	-15.0	-7.0
228	-15.0	-9.0
229	-15.0	-11.0
230	-15.0	-13.0
231	-15.0	-15.0
232	-13.0	-15.0
233	-11.0	-15.0
234	-9.0	-15.0
235	-7.0	-15.0
236	-5.0	-15.0
237	-3.0	-15.0
238	-1.0	-15.0
239	1.0	-15.0
240	3.0	-15.0
241	5.0	-15.0
242	7.0	-15.0
243	9.0	-15.0
244	11.0	-15.0
245	13.0	-15.0
246	15.0	-15.0
247	15.0	-13.0
248	15.0	-11.0
249	15.0	-9.0
250	15.0	-7.0
251	15.0	-5.0
252	15.0	-3.0
253	15.0	-1.0
254	17.0	1.0
255	17.0	3.0
256	17.0	5.0
257	17.0	7.0
258	17.0	9.0
259	17.0	11.0
260	17.0	13.0
261	17.0	15.0
262	17.0	17.0
263	15.0	17.0
264	13.0	17.0
265	11.0	17.0
266	9.0	17.0
267	7.0	17.0
268	5.0	17.0
269	3.0	17.0
270	1.0	17.0
271	-1.0	17.0
272	-3.0	17.0
273	-5.0	17.0
274	-7.0	17.0
275	-9.0	17.0
276	-11.0	17.0
277	-13.0	17.0
278	-15.0	17.0
279	-17.0	17.0
280	-17.0	15.0
281	-17.0	13.0
282	-17.0	11.0
283	-17.0	9.0
284	-17.0	7.0
285	-17.0	5.0
286	-17.0	3.0
287	-17.0	1.0
288	-17.0	-1.0
289	-17.0	-3.0
290	-17.0	-5.0
291	-17.0	-7.0
292	-17.0	-9.0
293	-17.0	-11.0
294	-17.0	-13.0
295	-17.0	-15.0
296	-17.0	-17.0
297	-15.0	-17.0
298	-13.0	-17.0
299	-11.0	-17.0
300	-9.0	-17.0
301	-7.0	-17.0
302	-5.0	-17.0
303	-3.0	-17.0
304	-1.0	-17.0
305	1.0	-17.0
306	3.0	-17.0
307	5.0	-17.0
308	7.0	-17.0
309	9.0	-17.0
310	11.0	-17.0
311	13.0	-17.0
312	15.0	-17.0
313	17.0	-17.0
314	17.0	-15.0
315	17.0	-13.0
316	17.0	-11.0
317	17.0	-9.0
318	17.0	-7.0
319	17.0	-5.0
320	17.0	-3.0
321	17.0	-1.0
322	19.0	1.0
323	19.0	3.0
324	19.0	5.0
325	19.0	7.0
326	19.0	9.0
327	19.0	11.0
328	19.0	13.0
329	19.0	15.0
330	19.0	17.0
331	19.0	19.0
332	17.0	19.0
333	15.0	19.0
334	13.0	19.0
335	11.0	19.0
336	9.0	19.0
337	7.0	19.0
338	5.0	19.0
339	3.0	19.0
340	1.0	19.0
341	-1.0	19.0
342	-3.0	19.0
343	-5.0	19.0
344	-7.0	19.0
345	-9.0	19.0
346	-11.0	19.0
347	-13.0	19.0
348	-15.0	19.0
349	-17.0	19.0
350	-19.0	19.0
351	-19.0	17.0
352	-19.0	15.0
353	-19.0	13.0
354	-19.0	11.0
355	-19.0	9.0
356	-19.0	7.0
357	-19.0	5.0
358	-19.0	3.0
359	-19.0	1.0
360	-19.0	-1.0
361	-19.0	-3.0
362	-19.0	-5.0
363	-19.0	-7.0
364	-19.0	-9.0
365	-19.0	-11.0
366	-19.0	-13.0
367	-19.0	-15.0
368	-19.0	-17.0
369	-19.0	-19.0
370	-17.0	-19.0
371	-15.0	-19.0
372	-13.0	-19.0
373	-11.0	-19.0
374	-9.0	-19.0
375	-7.0	-19.0
376	-5.0	-19.0
377	-3.0	-19.0
378	-1.0	-19.0
379	1.0	-19.0
380	3.0	-19.0
381	5.0	-19.0
382	7.0	-19.0
383	9.0	-19.0
384	11.0	-19.0
385	13.0	-19.0
386	15.0	-19.0
387	17.0	-19.0
388	19.0	-19.0
389	19.0	-17.0
390	19.0	-15.0
391	19.0	-13.0
392	19.0	-11.0
393	19.0	-9.0
394	19.0	-7.0
395	19.0	-5.0
396	19.0	-3.0
397	19.0	-1.0
DEMAND_SECTION
1	0
2	300
3	300
4	300
5	300
6	300
7	300
8	300
9	300
10	300
11	300
12	300
13	300
14	180
15	180
16	180
17	180
18	180
19	180
20	180
21	180
22	180
23	180
24	180
25	180
26	180
27	180
28	180
29	180
30	180
31	180
32	180
33	180
34	128
35	128
36	128
37	128
38	128
39	128
40	128
41	128
42	128
43	128
44	128
45	128
46	128
47	128
48	128
49	128
50	128
51	128
52	128
53	128
54	128
55	128
56	128
57	128
58	128
59	128
60	128
61	128
62	100
63	100
64	100
65	100
66	100
67	100
68	100
69	100
70	100
71	100
72	100
73	100
74	100
75	100
76	100
77	100
78	100
79	100
80	100
81	100
82	100
83	100
84	100
85	100
86	100
87	100
88	100
89	100
90	100
91	100
92	100
93	100
94	100
95	100
96	100
97	100
98	81
99	81
100	81
101	81
102	81
103	81
104	81
105	81
106	81
107	81
108	81
109	81
110	81
111	81
112	81
113	81
114	81
115	81
116	81
117	81
118	81
119	81
120	81
121	81
122	81
123	81
124	81
125	81
126	81
127	81
128	81
129	81
130	81
131	81
132	81
133	81
134	81
135	81
136	81
137	81
138	81
139	81
140	81
141	81
142	69
143	69
144	69
145	69
146	69
147	69
148	69
149	69
150	69
151	69
152	69
153	69
154	69
155	69
156	69
157	69
158	69
159	69
160	69
161	69
162	69
163	69
164	69
165	69
166	69
167	69
168	69
169	69
170	69
171	69
172	69
173	69
174	69
175	69
176	69
177	69
178	69
179	69
180	69
181	69
182	69
183	69
184	69
185	69
186	69
187	69
188	69
189	69
190	69
191	69
192	69
193	69
194	60
195	60
196	60
197	60
198	60
199	60
200	60
201	60
202	60
203	60
204	60
205	60
206	60
207	60
208	60
209	60
210	60
211	60
212	60
213	60
214	60
215	60
216	60
217	60
218	60
219	60
220	60
221	60
222	60
223	60
224	60
225	60
226	60
227	60
228	60
229	60
230	60
231	60
232	60
233	60
234	60
235	60
236	60
237	60
238	60
239	60
240	60
241	60
242	60
243	60
244	60
245	60
246	60
247	60
248	60
249	60
250	60
251	60
252	60
253	60
254	52
255	52
256	52
257	52
258	52
259	52
260	52
261	52
262	52
263	52
264	52
265	52
266	52
267	52
268	52
269	52
270	52
271	52
272	52
273	52
274	52
275	52
276	52
277	52
278	52
279	52
280	52
281	52
282	52
283	52
284	52
285	52
286	52
287	52
288	52
289	52
290	52
291	52
292	52
293	52
294	52
295	52
296	52
297	52
298	52
299	52
300	52
301	52
302	52
303	52
304	52
305	52
306	52
307	52
308	52
309	52
310	52
311	52
312	52
313	52
314	52
315	52
316	52
317	52
318	52
319	52
320	52
321	52
322	47
323	47
324	47
325	47
326	47
327	47
328	47
329	47
330	47
331	47
332	47
333	47
334	47
335	47
336	47
337	47
338	47
339	47
340	47
341	47
342	47
343	47
344	47
345	47
346	47
347	47
348	47
349	47
350	47
351	47
352	47
353	47
354	47
355	47
356	47
357	47
358	47
359	47
360	47
361	47
362	47
363	47
364	47
365	47
366	47
367	47
368	47
369	47
370	47
371	47
372	47
373	47
374	47
375	47
376	47
377	47
378	47
379	47
380	47
381	47
382	47
383	47
384	47
385	47
386	47
387	47
388	47
389	47
390	47
391	47
392	47
393	47
394	47
395	47
396	47
397	47
DEPOT_SECTION
1
-1
EOF
