experiment/data/hgs-res/Vrp-Set-Golden-n397/Vrp-Set-Golden-n397-hgs/0.hgs1.tour
Route #1: 46 78 118 166 222 286 357 358 359 360 361 289 225 169 121
Route #2: 48 80 120 168 224 288 287 223 167 119 79 47
Route #3: 7 23 24 8
Route #4: 81 122 171 227 291 292 293 294 295 296 297 298 232 233 175 126
Route #5: 84 83 125 174 173 231 230 229 228 172 124 123 82
Route #6: 176 234 300 299 373 372 371 370 369 368 367 366 365 364 363 362 290 226 170
Route #7: 25 49 50 51 86 52 26
Route #8: 53 87 128 178 236 302 376 375 374 301 235 177 127 85
Route #9: 10 28 27 9
Route #10: 55 89 131 181 239 305 304 238 180 130 88 54
Route #11: 129 179 237 303 377 378 379 380 381 306 240 182 132 90 56
Route #12: 183 241 307 308 382 383 384 385 386 387 388 312 311 310 309 242 184 133
Route #13: 57 92 135 187 186 246 314 315 247 248 188 136 93
Route #14: 137 189 249 317 316 392 391 390 389 313 245 244 243 185 134 91
Route #15: 59 95 139 138 94 58 30 29
Route #16: 12 32 31 11
Route #17: 62 98 142 194 254 322 321 396 395 394 393 318 250 190 191 96
Route #18: 60 140 192 252 251 319 320 253 193 141 97 61 33
Route #19: 16 15 35 34 14 13
Route #20: 150 265 335 334 333 332 331 330 329 328 327 326 325 324 323 255 195 143 99
Route #21: 63 100 144 196 256 257 258 259 260 261 262 263 264 202 148 103
Route #22: 36 65 102 146 147 201 200 199 198 197 145 101 64
Route #23: 1 2 3
Route #24: 38 68 106 152 206 268 267 205 151 105 67 37
Route #25: 66 104 149 203 204 266 336 337 338 339 269 207 153 107 69
Route #26: 4 18 40 39 17
Route #27: 71 109 155 209 210 272 342 341 340 271 270 208 154 108 70
Route #28: 110 156 211 273 343 344 345 346 347 277 215 216 160 161 114 75
Route #29: 72 111 157 158 212 274 275 276 214 213 159 113 112 74
Route #30: 19 41 42 73 43 44 20
Route #31: 115 162 217 281 280 279 278 348 349 350 351 352 353 354 282 218 219 163
Route #32: 6 22 21 5
Route #33: 45 77 117 165 221 285 356 355 283 284 220 164 116 76
Cost 1341.12
